40	100	100	100
8	2	9
7	6	3
5	4	1
8	7	1
5	8	5
4	1	1
5	2	2
6	1	8
7	4	4
8	9	3
5	8	3
4	5	4
7	9	1
9	6	7
7	8	2
2	2	4
2	5	3
2	8	2
7	2	4
6	5	1
3	9	2
9	1	6
2	8	5
1	5	7
1	6	4
6	7	1
8	5	4
5	1	5
8	2	9
1	7	9
2	6	6
7	9	2
5	2	4
9	2	8
6	4	2
7	5	8
6	6	4
7	6	6
7	8	6
9	2	2
